Total weight: 1042.6970800284794
Route 1: 0 53 21 72 73 28 27 69 31 88 62 19 11 63 90 32 20 9 51 82 8 17 86 16 61 96 6 89 52 1 79 33 81 78 3 68 4 24 29 77 0 
Route 2: 0 34 35 71 65 66 64 7 18 42 43 38 44 14 91 99 5 60 83 84 45 46 36 49 47 48 10 70 30 50 76 55 25 56 74 15 100 92 0 
Route 3: 0 2 57 41 22 75 23 67 39 54 80 12 26 40 87 97 37 98 85 93 59 95 94 13 58 0 
